c 
c U(n,d) graph
c graph gen seed     : 907
c number of vertices : 50
c max number of edges: 1225
c Euclidean distance : 0.400000
c data structure     : sparse
c
c           Graph Stats
c number of vertices  : 50
c nonisolated vertices: 50
c number of edges     : 395
c edge density        : 0.322449
c max degree          : 25
c avg degree          : 15.80
c min degree          : 4
p col 50 395
e 1 49
e 1 47
e 1 45
e 1 33
e 1 32
e 1 31
e 1 30
e 1 27
e 1 26
e 1 20
e 1 18
e 1 16
e 1 15
e 1 10
e 1 9
e 1 5
e 1 4
e 1 3
e 2 48
e 2 43
e 2 41
e 2 39
e 2 38
e 2 37
e 2 35
e 2 34
e 2 29
e 2 26
e 2 25
e 2 19
e 2 11
e 2 8
e 2 7
e 2 6
e 3 49
e 3 45
e 3 40
e 3 36
e 3 33
e 3 32
e 3 31
e 3 30
e 3 28
e 3 27
e 3 23
e 3 20
e 3 18
e 3 16
e 3 15
e 3 10
e 3 9
e 3 4
e 4 49
e 4 45
e 4 44
e 4 42
e 4 41
e 4 40
e 4 36
e 4 34
e 4 33
e 4 32
e 4 31
e 4 27
e 4 26
e 4 24
e 4 23
e 4 20
e 4 18
e 4 16
e 4 15
e 4 13
e 4 10
e 4 9
e 4 8
e 5 49
e 5 47
e 5 37
e 5 32
e 5 30
e 5 26
e 5 22
e 5 16
e 5 12
e 6 50
e 6 48
e 6 43
e 6 41
e 6 39
e 6 38
e 6 34
e 6 29
e 6 21
e 6 19
e 6 17
e 6 14
e 6 8
e 7 48
e 7 43
e 7 41
e 7 39
e 7 38
e 7 37
e 7 35
e 7 34
e 7 26
e 7 25
e 7 19
e 7 12
e 7 11
e 7 8
e 8 48
e 8 44
e 8 43
e 8 41
e 8 39
e 8 38
e 8 37
e 8 35
e 8 34
e 8 32
e 8 29
e 8 26
e 8 25
e 8 19
e 8 11
e 8 10
e 9 49
e 9 45
e 9 42
e 9 40
e 9 36
e 9 33
e 9 31
e 9 28
e 9 27
e 9 24
e 9 23
e 9 20
e 9 18
e 9 16
e 9 15
e 9 13
e 9 10
e 10 49
e 10 45
e 10 44
e 10 42
e 10 41
e 10 40
e 10 36
e 10 33
e 10 32
e 10 31
e 10 27
e 10 26
e 10 24
e 10 23
e 10 20
e 10 18
e 10 16
e 10 15
e 10 13
e 11 48
e 11 47
e 11 43
e 11 38
e 11 37
e 11 35
e 11 34
e 11 26
e 11 25
e 11 19
e 11 12
e 12 47
e 12 37
e 12 32
e 12 30
e 12 26
e 12 25
e 12 22
e 12 19
e 13 45
e 13 44
e 13 42
e 13 40
e 13 36
e 13 33
e 13 27
e 13 24
e 13 23
e 13 20
e 13 17
e 13 15
e 14 50
e 14 46
e 14 41
e 14 39
e 14 29
e 14 21
e 14 17
e 15 49
e 15 45
e 15 44
e 15 40
e 15 36
e 15 33
e 15 32
e 15 31
e 15 30
e 15 27
e 15 26
e 15 24
e 15 23
e 15 20
e 15 18
e 15 16
e 16 49
e 16 45
e 16 40
e 16 33
e 16 32
e 16 31
e 16 30
e 16 27
e 16 23
e 16 20
e 16 18
e 17 50
e 17 46
e 17 44
e 17 41
e 17 39
e 17 29
e 17 24
e 17 21
e 18 49
e 18 45
e 18 40
e 18 33
e 18 32
e 18 31
e 18 30
e 18 28
e 18 27
e 18 23
e 18 20
e 19 48
e 19 43
e 19 41
e 19 39
e 19 38
e 19 37
e 19 35
e 19 34
e 19 29
e 19 26
e 19 25
e 20 49
e 20 45
e 20 44
e 20 42
e 20 40
e 20 36
e 20 33
e 20 32
e 20 31
e 20 30
e 20 28
e 20 27
e 20 24
e 20 23
e 21 50
e 21 46
e 21 44
e 21 41
e 21 39
e 21 29
e 22 47
e 22 30
e 23 49
e 23 45
e 23 42
e 23 40
e 23 36
e 23 33
e 23 31
e 23 28
e 23 27
e 23 24
e 24 49
e 24 45
e 24 44
e 24 42
e 24 40
e 24 36
e 24 33
e 24 27
e 25 43
e 25 38
e 25 37
e 25 35
e 25 34
e 25 26
e 26 49
e 26 47
e 26 43
e 26 41
e 26 38
e 26 37
e 26 34
e 26 32
e 26 30
e 27 49
e 27 45
e 27 42
e 27 40
e 27 36
e 27 33
e 27 31
e 27 28
e 28 45
e 28 40
e 28 33
e 28 31
e 29 50
e 29 48
e 29 44
e 29 43
e 29 41
e 29 39
e 29 38
e 29 34
e 30 49
e 30 47
e 30 32
e 30 31
e 31 49
e 31 45
e 31 40
e 31 33
e 31 32
e 32 49
e 32 47
e 32 37
e 33 49
e 33 45
e 33 42
e 33 40
e 33 36
e 34 48
e 34 44
e 34 43
e 34 41
e 34 39
e 34 38
e 34 37
e 34 35
e 35 48
e 35 43
e 35 39
e 35 38
e 35 37
e 36 49
e 36 45
e 36 44
e 36 42
e 36 40
e 37 47
e 37 43
e 37 38
e 38 48
e 38 43
e 38 41
e 38 39
e 39 50
e 39 48
e 39 43
e 39 41
e 40 49
e 40 45
e 40 42
e 41 50
e 41 48
e 41 44
e 41 43
e 42 45
e 42 44
e 43 48
e 44 50
e 44 49
e 44 46
e 44 45
e 45 49
e 46 50
